2576, 0, 0, 89, 1
2577, 0, 1, 43, 2
2578, 0, 2, 73, 0
2579, 0, 3, 46, 4
2580, 0, 4, 87, 3
2581, 1, 0, 83, 3
2582, 1, 1, 53, 4
2583, 1, 2, 70, 1
2584, 1, 3, 37, 0
2585, 1, 4, 59, 2
2586, 2, 0, 42, 2
2587, 2, 1, 73, 0
2588, 2, 2, 64, 4
2589, 2, 3, 77, 3
2590, 2, 4, 79, 1
2591, 3, 0, 71, 1
2592, 3, 1, 50, 4
2593, 3, 2, 47, 2
2594, 3, 3, 43, 0
2595, 3, 4, 33, 3
